Route #1: 44 10 5 8 27 29 37
Route #2: 41 47 51 35 33 7 43
Route #3: 2 48 38 16 9 32 34 19 15 49 46
Route #4: 13 26 22 17 50 12 23
Route #5: 4 45 14 39 24 31 3 28 11 21
Route #6: 1 30 18 20 42 40
Route #7: 36 6 25
Cost 757